% data.dzn

int: m = 3; % Number of couriers
int: n = 7; % Number of items

array[1..m] of int: LoadSize = [15, 10, 7];           % Maximum load weight for each courier
array[1..n] of int: SizeS = [3, 2, 6, 8, 5, 4, 4];    % Weight of each item


% Array od distances

array[1..n+1, 1..n+1] of int: Distances = array2d(1..n+1, 1..n+1,  
  [
    0, 3, 3, 6, 5, 6, 6, 2,
    3, 0, 4, 3, 4, 7, 7, 3,
    3, 4, 0, 7, 6, 3, 5, 3,
    6, 3, 7, 0, 3, 6, 6, 4,
    5, 4, 6, 3, 0, 3, 3, 3,
    6, 7, 3, 6, 3, 0, 2, 4,
    6, 7, 5, 6, 3, 2, 0, 4,
    2, 3, 3, 4, 3, 4, 4, 0
  ]);
